10
1 0 23
2 0 17
2 1 16
3 0 6
3 1 22
3 2 10
4 0 7
4 1 10
4 2 6
4 3 15
5 0 17
5 1 2
5 2 19
5 3 1
5 4 23
6 0 25
6 1 5
6 2 9
6 3 21
6 4 11
6 5 13
7 0 3
7 1 8
7 2 23
7 3 12
7 4 10
7 5 23
7 6 19
8 0 13
8 1 19
8 2 11
8 3 14
8 4 20
8 5 16
8 6 5
8 7 14
9 0 16
9 1 25
9 2 7
9 3 9
9 4 10
9 5 21
9 6 3
9 7 16
9 8 12
